<instance format="XCSP3" type="COP">
<variables>
<array id="T" note="T[i] is the model used for the ith station transmitter" size="[50]">
<domain for="T[0]"> 14 28 42 70 84 98 126 140 154 168 182 196 224 238 252 266 280 294 308 322 336 350 364 392 406 434 448 462 476 490 504 518 532 546 560 574 588 602 616 630 644 658 672 700 714 728 </domain>
<domain for="T[1]"> 14 28 42 56 70 84 98 140 154 168 182 196 224 238 252 266 294 308 322 336 350 364 378 392 406 420 434 448 462 476 490 504 518 532 546 560 574 588 602 616 630 644 658 672 686 700 714 728 </domain>
<domain for="T[2]"> 14 28 42 84 98 112 126 140 154 168 182 196 210 224 252 280 294 308 322 336 378 392 406 420 434 448 462 490 504 518 532 546 560 588 616 630 644 658 672 686 700 714 728 </domain>
<domain for="T[3]"> 14 28 42 56 70 84 98 112 126 140 154 168 182 196 210 224 238 252 266 280 294 308 322 336 350 364 378 392 406 420 448 462 476 490 504 518 532 546 560 574 588 602 616 630 658 672 686 700 714 728 </domain>
<domain for="T[4] T[24] T[45] T[48]"> 14 28 42 56 70 84 98 112 126 140 154 168 182 196 210 224 238 252 266 280 294 308 322 336 350 364 378 392 406 420 434 448 462 476 490 504 518 532 546 560 574 588 602 616 630 644 658 672 686 700 714 728 </domain>
<domain for="T[5]"> 42 56 70 84 98 112 126 140 154 168 182 196 210 224 238 252 266 280 294 308 322 336 350 364 378 392 406 420 434 448 462 476 490 504 532 546 560 574 588 602 616 630 644 658 672 686 700 714 728 </domain>
<domain for="T[6]"> 14 28 42 56 70 84 98 112 126 140 154 168 182 196 210 224 238 252 266 280 294 308 322 336 350 364 392 406 420 434 448 462 476 490 504 518 532 546 560 574 588 602 616 630 644 658 672 686 700 714 728 </domain>
<domain for="T[7]"> 14 28 42 70 84 98 112 126 154 168 182 196 210 224 238 252 266 280 294 308 322 350 378 392 420 434 448 462 476 490 504 518 532 546 574 602 616 644 658 686 714 728 </domain>
<domain for="T[8]"> 14 28 42 70 84 98 112 126 154 168 182 196 210 224 238 252 266 280 294 308 322 350 364 378 392 406 420 434 448 462 476 504 518 532 546 560 574 602 616 630 644 658 672 700 714 728 </domain>
<domain for="T[9]"> 14 28 56 84 98 112 126 140 154 168 182 196 210 224 266 280 294 308 322 336 350 364 378 392 406 462 476 490 504 518 560 574 602 630 658 672 686 700 714 728 </domain>
<domain for="T[10]"> 14 28 42 56 70 84 98 112 126 140 154 168 182 196 210 224 238 252 266 280 294 308 322 336 350 364 378 392 406 420 434 448 462 476 490 504 532 546 560 574 588 602 616 630 644 658 672 686 700 714 728 </domain>
<domain for="T[11]"> 14 42 56 70 84 112 126 140 154 168 182 196 224 238 280 294 308 322 336 364 392 406 420 434 448 462 504 518 546 560 574 588 602 616 630 644 658 672 686 700 714 728 </domain>
<domain for="T[12]"> 14 28 42 56 70 84 98 112 126 140 154 168 182 196 210 224 238 252 266 280 294 308 336 350 364 378 392 406 420 434 448 462 476 490 504 518 532 546 560 574 588 602 616 630 644 658 672 686 700 714 728 </domain>
<domain for="T[13]"> 14 28 42 56 70 84 112 168 196 210 224 238 252 266 280 294 308 322 336 350 364 378 392 420 448 462 476 490 504 518 532 546 574 588 602 616 630 644 686 700 714 728 </domain>
<domain for="T[14]"> 14 28 42 56 70 84 98 112 126 140 154 168 182 196 210 224 238 252 266 280 294 308 322 336 364 378 392 406 420 434 448 462 490 504 518 532 546 560 574 588 602 616 630 644 658 700 714 728 </domain>
<domain for="T[15]"> 14 28 42 56 70 84 98 126 140 154 182 224 238 252 266 280 294 308 322 336 364 378 406 420 434 448 462 476 490 504 518 532 560 574 602 616 630 644 672 686 714 728 </domain>
<domain for="T[16]"> 14 28 42 70 84 98 126 140 154 168 182 196 210 224 238 252 280 294 322 336 350 364 378 392 420 448 462 476 490 504 518 532 546 574 602 616 630 644 658 700 714 728 </domain>
<domain for="T[17]"> 14 28 42 56 70 98 112 140 154 168 182 196 210 224 238 252 266 280 294 308 322 336 350 364 378 392 406 420 434 462 476 490 504 518 532 546 560 574 588 602 616 630 644 658 672 686 700 714 728 </domain>
<domain for="T[18]"> 14 42 56 70 84 98 112 126 140 154 168 182 196 210 252 266 280 294 308 322 336 350 378 392 406 434 448 462 490 504 518 532 546 560 574 588 602 630 644 658 672 686 714 728 </domain>
<domain for="T[19]"> 14 28 42 56 70 84 98 112 126 154 168 182 196 210 224 252 266 280 294 308 336 350 364 378 392 406 420 434 448 462 476 490 504 518 532 560 574 588 602 616 630 644 658 672 686 700 714 </domain>
<domain for="T[20] T[46]"> 14 28 42 56 70 84 98 112 126 140 154 168 182 196 210 224 238 252 266 280 294 308 322 336 350 364 378 392 406 420 434 448 462 476 490 504 518 532 546 560 588 602 616 630 644 658 672 686 700 714 728 </domain>
<domain for="T[21]"> 14 28 56 84 98 112 126 154 168 182 196 224 252 266 294 322 336 350 364 378 392 406 420 434 462 476 504 518 532 546 574 588 602 616 630 644 658 672 686 714 </domain>
<domain for="T[22]"> 14 28 42 56 70 84 98 112 126 140 154 168 182 196 210 238 252 266 280 294 308 322 336 350 378 392 406 420 434 462 476 490 504 518 532 560 574 588 602 616 630 644 672 686 700 714 728 </domain>
<domain for="T[23]"> 14 28 42 56 70 84 98 112 126 140 154 168 182 196 210 224 238 252 266 280 294 308 322 336 364 378 392 406 420 434 462 476 490 504 518 532 546 560 574 588 602 644 658 672 686 700 728 </domain>
<domain for="T[25]"> 14 28 42 56 70 84 98 126 140 168 182 196 210 224 238 252 280 294 322 336 378 392 420 434 462 476 490 504 518 546 560 574 588 616 630 658 672 686 714 728 </domain>
<domain for="T[26]"> 14 28 42 56 70 84 98 112 126 140 154 168 182 196 210 224 238 252 266 280 294 308 322 336 350 364 378 406 420 434 448 462 476 490 504 532 546 560 574 588 602 616 630 644 658 672 686 700 714 728 </domain>
<domain for="T[27]"> 14 28 42 56 70 84 98 112 154 168 182 196 210 224 238 252 266 280 322 336 350 364 392 406 420 434 448 462 490 504 518 532 546 560 588 616 630 658 686 700 714 728 </domain>
<domain for="T[28]"> 14 28 42 56 70 84 98 112 126 140 154 168 182 196 210 224 238 252 266 280 294 308 322 336 350 364 378 392 406 420 434 448 462 476 490 504 518 532 546 560 574 588 602 616 630 644 658 686 700 714 728 </domain>
<domain for="T[29]"> 14 28 42 56 70 84 98 112 126 140 154 168 182 196 210 224 238 252 266 280 294 308 322 336 350 364 378 392 406 420 448 476 490 504 518 532 546 560 574 588 602 616 630 644 658 672 686 700 714 728 </domain>
<domain for="T[30]"> 28 42 56 70 84 98 112 126 140 154 168 182 196 238 252 266 280 294 308 336 364 392 406 420 462 476 490 504 518 532 546 574 588 616 630 658 672 686 714 728 </domain>
<domain for="T[31]"> 28 56 70 84 112 126 140 168 182 196 210 224 238 266 280 294 308 322 336 350 364 378 392 406 420 434 448 462 476 490 504 518 532 560 574 588 602 616 630 644 658 672 686 700 714 728 </domain>
<domain for="T[32]"> 14 28 42 56 84 98 112 126 154 168 182 196 210 224 238 280 308 322 336 350 364 378 392 406 420 434 448 476 490 518 532 546 560 588 602 616 644 672 686 700 714 728 </domain>
<domain for="T[33]"> 14 28 70 84 98 112 126 140 154 168 182 196 210 224 238 252 280 294 308 322 336 350 364 378 392 406 420 434 462 476 490 504 518 532 560 574 616 630 644 658 686 700 714 728 </domain>
<domain for="T[34]"> 14 28 42 56 70 84 98 112 126 140 154 168 182 196 224 238 252 266 280 294 308 322 336 350 364 378 392 406 420 434 448 462 476 490 504 518 532 546 574 588 602 616 630 644 658 672 686 700 714 728 </domain>
<domain for="T[35]"> 42 56 70 84 112 126 140 154 168 182 196 210 224 238 252 266 280 294 308 322 336 350 364 378 392 406 420 434 448 462 476 504 532 546 560 574 588 602 616 630 644 658 672 686 700 714 728 </domain>
<domain for="T[36]"> 14 28 42 56 70 98 112 154 168 182 196 224 238 252 266 280 294 308 336 350 364 378 392 406 420 434 448 462 476 504 518 532 560 588 616 630 644 658 672 686 728 </domain>
<domain for="T[37]"> 14 28 42 56 70 98 112 126 140 154 168 182 196 210 224 238 252 266 280 294 308 322 336 350 364 378 392 406 420 434 448 462 490 504 518 532 546 574 588 602 616 630 644 658 672 686 700 714 728 </domain>
<domain for="T[38]"> 14 28 42 56 70 84 98 112 126 140 154 168 196 210 224 238 252 266 280 294 308 322 336 350 364 378 392 406 420 434 448 462 476 490 504 518 546 560 574 602 616 630 644 672 686 714 728 </domain>
<domain for="T[39]"> 14 56 70 84 98 112 126 140 154 168 196 210 224 238 252 266 280 294 308 322 336 350 364 378 392 406 420 434 448 462 476 490 504 518 532 546 560 574 588 602 616 630 644 658 672 686 700 714 728 </domain>
<domain for="T[40]"> 14 28 42 56 70 84 98 112 126 140 168 182 196 210 224 238 252 266 280 308 322 336 350 364 378 392 406 434 448 462 476 490 504 518 546 560 574 588 602 630 644 658 672 686 714 728 </domain>
<domain for="T[41]"> 14 28 42 70 84 98 112 126 140 154 168 196 210 224 238 252 266 280 294 322 336 350 364 378 392 406 420 434 448 462 476 490 504 518 532 546 574 588 602 630 644 658 672 700 714 728 </domain>
<domain for="T[42]"> 14 28 42 56 70 84 98 112 126 140 154 168 182 210 224 238 266 280 294 322 336 350 364 378 406 420 434 448 462 476 490 504 518 532 546 560 574 588 602 616 630 644 658 672 686 700 714 728 </domain>
<domain for="T[43]"> 14 42 70 98 126 140 154 168 182 196 224 238 252 266 280 294 308 322 336 350 364 378 392 406 434 448 462 490 504 518 532 546 560 574 602 616 630 644 658 672 714 </domain>
<domain for="T[44]"> 14 28 56 84 98 112 126 154 168 182 210 224 238 266 280 294 308 322 336 364 378 392 420 434 448 462 476 490 504 518 532 560 574 588 602 616 630 644 658 672 686 700 714 728 </domain>
<domain for="T[47]"> 14 28 56 70 84 98 112 126 168 182 196 210 238 252 266 280 294 308 322 336 364 378 392 406 420 434 448 462 476 490 504 518 546 560 574 588 602 616 630 644 658 672 686 700 714 728 </domain>
<domain for="T[49]"> 14 42 84 126 140 154 168 182 196 210 224 238 252 266 280 294 322 336 350 364 378 392 406 420 434 448 462 476 490 504 518 560 574 588 602 630 644 658 672 686 700 714 </domain>
</array>
<array id="R" note="R[i] is the model used for the ith station receiver" size="[50]">
<domain for="R[0]"> 14 28 42 56 70 84 98 126 140 154 168 182 196 210 224 238 252 266 308 322 336 350 364 378 392 406 420 462 476 490 504 518 532 546 560 574 588 602 616 630 644 672 686 700 714 728 </domain>
<domain for="R[1]"> 14 28 42 84 98 112 126 140 168 196 210 238 252 266 280 308 322 336 378 392 406 420 434 448 462 476 490 504 518 546 560 588 602 616 630 644 658 672 686 700 714 728 </domain>
<domain for="R[2]"> 28 56 70 98 112 126 154 182 196 210 224 238 252 266 280 294 308 322 336 350 364 378 392 406 420 434 448 490 504 518 532 546 560 574 602 616 644 686 714 728 </domain>
<domain for="R[3]"> 14 28 42 56 70 84 98 112 126 140 154 168 196 210 224 238 252 266 280 294 308 336 350 420 434 448 462 476 490 504 518 532 546 560 588 630 644 658 672 686 700 714 728 </domain>
<domain for="R[4]"> 14 28 42 56 70 84 98 112 126 140 168 182 196 210 224 238 252 266 280 294 308 322 336 364 378 392 406 420 434 448 462 476 490 504 518 532 546 560 574 588 602 616 630 644 658 672 686 700 714 728 </domain>
<domain for="R[5]"> 14 42 56 70 84 98 112 126 140 154 168 182 196 210 224 238 252 266 280 294 308 322 364 378 392 406 420 434 448 462 476 490 504 518 532 546 560 574 588 602 616 630 644 658 672 686 700 714 728 </domain>
<domain for="R[6]"> 14 28 42 56 84 98 112 126 140 154 168 196 210 238 252 266 280 294 308 322 336 350 364 378 392 420 462 518 532 560 574 588 602 616 630 644 658 672 700 714 728 </domain>
<domain for="R[7]"> 14 28 42 56 70 84 98 112 126 140 154 168 182 196 224 252 266 280 294 322 336 350 378 406 434 448 462 476 490 504 518 546 560 574 602 616 630 672 686 700 728 </domain>
<domain for="R[8]"> 14 28 42 56 70 84 98 126 140 154 168 182 196 210 224 266 280 294 308 322 336 350 364 392 406 434 448 476 490 504 518 532 546 560 574 588 602 616 630 644 658 686 700 728 </domain>
<domain for="R[9]"> 14 28 42 56 70 84 112 126 140 154 168 182 196 224 238 252 266 280 294 336 350 364 392 420 434 448 462 490 504 518 532 546 560 574 588 602 616 630 644 672 686 700 714 728 </domain>
<domain for="R[10]"> 14 28 56 70 84 98 112 126 140 154 168 182 196 210 224 238 252 266 280 294 322 336 350 364 378 392 406 420 434 448 462 476 490 504 518 532 546 560 574 588 602 616 630 644 658 672 686 700 714 728 </domain>
<domain for="R[11]"> 28 56 84 98 112 126 140 154 182 210 224 238 252 266 280 294 308 322 336 350 364 378 392 420 434 448 462 476 490 504 532 546 560 588 602 616 630 644 658 672 686 700 714 728 </domain>
<domain for="R[12]"> 14 28 42 56 70 98 112 126 140 154 168 182 210 224 238 252 266 280 294 308 322 336 350 364 378 392 406 420 434 448 462 476 490 504 518 532 546 560 588 602 616 644 658 672 686 700 714 728 </domain>
<domain for="R[13]"> 14 28 42 56 70 84 98 112 126 140 154 168 182 196 210 224 238 252 266 280 294 308 322 336 350 364 378 392 406 420 434 448 462 476 490 518 532 560 574 588 602 616 630 644 658 672 686 700 714 728 </domain>
<domain for="R[14]"> 14 28 42 70 84 98 112 126 140 154 168 182 196 210 224 238 252 266 280 294 322 336 364 378 392 406 420 434 448 476 490 504 518 532 546 560 574 588 602 616 630 644 658 672 714 728 </domain>
<domain for="R[15]"> 14 28 56 70 84 98 112 126 140 154 168 182 196 210 224 238 252 266 280 294 308 322 336 350 364 378 392 406 448 462 476 490 504 518 532 546 560 574 588 602 616 630 644 658 672 686 700 714 728 </domain>
<domain for="R[16]"> 14 28 42 56 70 84 98 112 126 140 154 182 196 210 224 238 252 266 280 308 322 336 350 364 378 392 406 420 434 462 476 504 518 532 546 560 574 588 602 630 644 658 672 686 700 714 728 </domain>
<domain for="R[17]"> 14 28 56 84 112 126 140 154 168 196 210 224 238 252 266 280 294 308 322 336 350 364 392 406 420 434 462 476 490 504 518 532 546 574 588 602 616 630 644 658 672 686 700 714 728 </domain>
<domain for="R[18]"> 14 28 42 56 70 84 98 112 126 140 154 168 182 196 210 224 238 252 266 280 294 308 322 336 350 364 378 392 420 448 462 476 490 504 518 532 546 560 574 588 602 630 644 658 672 686 700 714 728 </domain>
<domain for="R[19]"> 14 28 42 56 98 112 126 140 154 182 196 210 224 238 252 280 294 308 322 336 350 364 378 392 406 420 448 462 490 504 518 532 560 574 588 602 616 630 644 658 672 686 700 </domain>
<domain for="R[20]"> 14 28 42 56 70 84 98 112 126 140 154 168 182 196 210 224 238 252 266 294 308 322 336 350 364 378 392 406 420 434 448 462 476 490 504 518 532 546 560 574 588 602 616 630 644 658 672 700 714 728 </domain>
<domain for="R[21]"> 28 42 84 126 140 154 168 182 196 238 252 266 280 294 308 322 350 378 392 406 420 434 448 462 476 490 504 518 532 546 574 588 602 616 630 644 658 672 700 714 728 </domain>
<domain for="R[22]"> 14 28 42 56 70 84 98 112 126 140 154 168 182 196 210 224 238 252 266 280 294 308 322 336 350 364 378 392 406 420 434 448 462 476 490 504 518 532 546 560 574 588 602 616 630 644 658 686 700 714 728 </domain>
<domain for="R[23]"> 14 98 112 126 140 154 168 182 196 210 224 238 252 266 280 294 308 322 336 350 364 378 392 406 420 434 462 476 490 504 518 532 546 574 602 616 630 644 658 672 728 </domain>
<domain for="R[24]"> 14 28 42 56 70 84 98 112 126 140 168 182 196 210 224 238 252 266 280 294 308 322 336 350 364 378 392 406 420 434 448 462 476 490 504 518 532 546 560 574 588 602 616 630 644 658 672 686 700 714 728 </domain>
<domain for="R[25]"> 14 42 56 70 98 140 154 168 196 210 224 238 252 266 280 322 336 350 364 378 392 406 420 434 448 462 476 490 518 532 546 560 588 602 616 630 658 672 700 714 728 </domain>
<domain for="R[26]"> 14 28 42 70 98 112 126 140 154 168 182 196 224 238 252 266 280 294 308 322 336 350 364 378 392 406 420 434 448 462 476 490 504 518 532 546 560 574 588 602 616 630 644 672 686 700 714 728 </domain>
<domain for="R[27]"> 14 28 42 56 70 84 98 112 126 140 154 168 182 196 210 224 238 252 266 280 294 308 322 336 350 364 378 392 406 420 434 448 462 476 490 504 518 532 546 560 574 588 602 616 644 658 672 686 700 714 728 </domain>
<domain for="R[28]"> 14 28 42 56 70 84 98 112 126 140 154 168 182 196 210 224 238 280 308 322 350 378 392 406 420 434 448 462 476 490 504 518 532 574 588 616 630 658 672 700 714 728 </domain>
<domain for="R[29]"> 14 28 56 70 84 98 112 126 154 168 182 196 210 224 238 252 280 294 308 322 336 350 364 378 392 406 420 434 448 462 476 490 504 518 532 546 574 588 602 616 630 644 658 672 686 700 714 728 </domain>
<domain for="R[30]"> 14 28 42 70 84 98 126 140 154 168 182 210 224 238 252 266 280 294 308 322 336 350 364 378 392 406 420 434 448 462 476 504 518 532 546 560 574 588 602 616 630 644 658 672 686 700 714 728 </domain>
<domain for="R[31]"> 14 28 42 56 70 84 98 112 140 154 168 182 196 210 224 238 252 266 280 294 308 322 336 350 364 378 392 406 420 434 448 462 476 490 504 532 546 560 574 588 602 616 630 644 658 672 686 700 714 728 </domain>
<domain for="R[32]"> 14 28 56 70 98 112 126 140 168 182 210 224 238 280 294 308 322 336 350 364 378 406 420 434 462 476 490 504 518 546 560 574 588 602 616 630 658 672 686 700 714 728 </domain>
<domain for="R[33]"> 14 28 42 56 70 84 98 112 126 140 182 196 224 238 252 266 280 294 308 322 336 350 364 406 420 448 462 476 490 504 518 532 546 574 588 616 658 672 686 714 728 </domain>
<domain for="R[34] R[37]"> 14 28 42 56 70 84 98 112 126 140 154 168 182 196 210 224 238 252 266 280 294 308 322 336 350 364 378 392 406 420 434 448 462 476 490 504 518 532 546 560 574 588 602 616 630 644 658 672 686 700 714 728 </domain>
<domain for="R[35]"> 14 28 42 56 70 84 98 112 126 154 168 196 224 238 252 266 280 294 308 322 336 350 392 406 420 434 448 462 476 490 504 518 532 546 574 588 602 616 630 644 658 672 700 714 728 </domain>
<domain for="R[36]"> 14 28 42 56 70 84 98 112 126 140 154 168 182 196 210 224 238 252 266 280 294 308 322 336 350 364 378 392 406 420 462 476 490 504 518 532 546 560 574 588 602 616 630 644 658 672 686 700 714 728 </domain>
<domain for="R[38]"> 14 28 42 56 70 84 98 112 140 154 168 196 210 224 238 252 266 294 308 322 336 350 364 378 392 406 420 434 448 462 476 490 504 532 546 574 588 602 616 630 644 658 672 686 700 714 728 </domain>
<domain for="R[39]"> 28 42 56 70 84 98 112 126 140 154 168 182 196 210 224 238 252 266 280 294 308 322 350 364 392 406 420 434 448 462 476 490 504 518 532 546 560 574 588 602 616 630 644 658 672 686 700 714 728 </domain>
<domain for="R[40]"> 28 42 56 70 84 98 126 154 168 182 196 224 238 252 266 294 308 322 336 350 364 378 392 406 420 434 448 462 476 504 518 532 546 560 574 588 616 630 644 658 672 686 714 728 </domain>
<domain for="R[41]"> 14 28 42 56 70 84 112 126 140 154 168 182 196 238 252 266 280 294 308 322 336 350 364 378 392 406 420 434 448 462 476 490 504 518 532 560 574 588 602 616 630 644 686 714 728 </domain>
<domain for="R[42]"> 14 42 56 70 84 98 112 126 140 154 168 210 224 238 266 280 294 308 322 350 364 378 392 406 420 434 448 462 476 490 504 518 532 546 560 574 588 602 616 630 658 672 700 714 728 </domain>
<domain for="R[43]"> 14 28 42 70 84 98 112 126 140 154 168 182 196 210 224 238 252 266 294 322 336 364 392 406 420 434 462 476 490 504 532 546 560 574 588 602 616 644 658 672 686 700 714 728 </domain>
<domain for="R[44]"> 14 28 42 56 70 84 98 140 168 182 196 210 238 252 280 294 308 336 350 378 392 406 420 434 462 476 504 518 532 546 560 574 588 602 616 630 644 658 672 686 700 714 </domain>
<domain for="R[45]"> 14 28 42 56 70 84 98 112 126 140 154 168 182 196 224 238 252 266 280 294 308 322 336 350 378 392 406 420 434 448 462 476 490 504 518 532 546 560 574 602 616 630 644 658 672 686 700 714 728 </domain>
<domain for="R[46]"> 14 28 42 56 70 84 98 112 126 140 154 168 182 196 224 238 252 266 280 294 308 322 336 350 364 378 392 406 420 434 448 462 476 490 504 518 532 546 560 574 588 602 616 630 644 658 672 686 700 714 728 </domain>
<domain for="R[47]"> 14 28 42 70 84 98 112 126 140 168 182 196 224 238 252 266 280 294 308 322 336 350 364 378 392 406 420 434 448 462 490 504 518 532 560 574 588 602 630 644 658 672 686 700 714 728 </domain>
<domain for="R[48]"> 14 28 42 56 70 126 140 154 168 182 196 224 238 252 266 280 294 350 364 378 392 406 420 434 448 462 476 504 546 560 574 588 602 616 630 644 658 686 700 728 </domain>
<domain for="R[49]"> 14 28 42 56 70 84 98 112 126 140 154 168 182 196 210 224 238 252 266 280 308 322 336 364 378 392 406 420 434 448 476 490 504 518 546 574 588 602 616 630 644 658 672 686 700 714 728 </domain>
</array>
<var id="nFrequencies"> 0..49 </var>
</variables>
<constraints>
<group>
<intension> eq(%0,dist(%1,%2)) </intension>
<args> 154 T[0] R[0] </args>
<args> 154 T[1] R[1] </args>
<args> 154 T[2] R[2] </args>
<args> 154 T[3] R[3] </args>
<args> 154 T[4] R[4] </args>
<args> 154 T[5] R[5] </args>
<args> 154 T[6] R[6] </args>
<args> 154 T[7] R[7] </args>
<args> 154 T[8] R[8] </args>
<args> 154 T[9] R[9] </args>
<args> 154 T[10] R[10] </args>
<args> 154 T[11] R[11] </args>
<args> 154 T[12] R[12] </args>
<args> 154 T[13] R[13] </args>
<args> 154 T[14] R[14] </args>
<args> 154 T[15] R[15] </args>
<args> 154 T[16] R[16] </args>
<args> 154 T[17] R[17] </args>
<args> 154 T[18] R[18] </args>
<args> 154 T[19] R[19] </args>
<args> 154 T[20] R[20] </args>
<args> 154 T[21] R[21] </args>
<args> 154 T[22] R[22] </args>
<args> 154 T[23] R[23] </args>
<args> 154 T[24] R[24] </args>
<args> 154 T[25] R[25] </args>
<args> 154 T[26] R[26] </args>
<args> 154 T[27] R[27] </args>
<args> 154 T[28] R[28] </args>
<args> 154 T[29] R[29] </args>
<args> 154 T[30] R[30] </args>
<args> 154 T[31] R[31] </args>
<args> 154 T[32] R[32] </args>
<args> 154 T[33] R[33] </args>
<args> 154 T[34] R[34] </args>
<args> 154 T[35] R[35] </args>
<args> 154 T[36] R[36] </args>
<args> 154 T[37] R[37] </args>
<args> 154 T[38] R[38] </args>
<args> 154 T[39] R[39] </args>
<args> 154 T[40] R[40] </args>
<args> 154 T[41] R[41] </args>
<args> 154 T[42] R[42] </args>
<args> 154 T[43] R[43] </args>
<args> 154 T[44] R[44] </args>
<args> 154 T[45] R[45] </args>
<args> 154 T[46] R[46] </args>
<args> 154 T[47] R[47] </args>
<args> 154 T[48] R[48] </args>
<args> 154 T[49] R[49] </args>
</group>
<group>
<intension> and(ge(dist(%0,%1),%2),ge(dist(%3,%4),%5),ge(dist(%3,%0),%6),ge(dist(%1,%4),%7)) </intension>
<args> T[0] R[21] 50 T[21] R[0] 50 50 50 </args>
<args> T[0] R[37] 30 T[37] R[0] 30 30 30 </args>
<args> T[0] R[18] 40 T[18] R[0] 40 40 40 </args>
<args> T[0] R[3] 30 T[3] R[0] 30 30 30 </args>
<args> T[0] R[42] 20 T[42] R[0] 20 20 20 </args>
<args> T[1] R[31] 20 T[31] R[1] 20 20 20 </args>
<args> T[3] R[25] 40 T[25] R[3] 40 40 40 </args>
<args> T[4] R[48] 40 T[48] R[4] 40 40 40 </args>
<args> T[6] R[10] 20 T[10] R[6] 20 20 20 </args>
<args> T[6] R[21] 40 T[21] R[6] 40 40 40 </args>
<args> T[7] R[36] 20 T[36] R[7] 20 20 20 </args>
<args> T[7] R[9] 50 T[9] R[7] 50 50 50 </args>
<args> T[8] R[37] 40 T[37] R[8] 40 40 40 </args>
<args> T[9] R[21] 20 T[21] R[9] 20 20 20 </args>
<args> T[9] R[18] 30 T[18] R[9] 30 30 30 </args>
<args> T[9] R[30] 40 T[30] R[9] 40 40 40 </args>
<args> T[10] R[39] 20 T[39] R[10] 20 20 20 </args>
<args> T[10] R[29] 40 T[29] R[10] 40 40 40 </args>
<args> T[10] R[40] 50 T[40] R[10] 50 50 50 </args>
<args> T[11] R[41] 20 T[41] R[11] 20 20 20 </args>
<args> T[11] R[44] 30 T[44] R[11] 30 30 30 </args>
<args> T[12] R[42] 40 T[42] R[12] 40 40 40 </args>
<args> T[13] R[27] 30 T[27] R[13] 30 30 30 </args>
<args> T[13] R[42] 50 T[42] R[13] 50 50 50 </args>
<args> T[14] R[35] 20 T[35] R[14] 20 20 20 </args>
<args> T[14] R[36] 50 T[36] R[14] 50 50 50 </args>
<args> T[14] R[21] 20 T[21] R[14] 20 20 20 </args>
<args> T[14] R[40] 50 T[40] R[14] 50 50 50 </args>
<args> T[15] R[21] 50 T[21] R[15] 50 50 50 </args>
<args> T[16] R[17] 50 T[17] R[16] 50 50 50 </args>
<args> T[18] R[21] 20 T[21] R[18] 20 20 20 </args>
<args> T[18] R[47] 20 T[47] R[18] 20 20 20 </args>
<args> T[19] R[40] 20 T[40] R[19] 20 20 20 </args>
<args> T[21] R[32] 50 T[32] R[21] 50 50 50 </args>
<args> T[21] R[23] 50 T[23] R[21] 50 50 50 </args>
<args> T[22] R[30] 50 T[30] R[22] 50 50 50 </args>
<args> T[25] R[33] 30 T[33] R[25] 30 30 30 </args>
<args> T[25] R[47] 30 T[47] R[25] 30 30 30 </args>
<args> T[26] R[28] 30 T[28] R[26] 30 30 30 </args>
<args> T[26] R[41] 50 T[41] R[26] 50 50 50 </args>
<args> T[27] R[38] 20 T[38] R[27] 20 20 20 </args>
<args> T[28] R[33] 30 T[33] R[28] 30 30 30 </args>
<args> T[29] R[39] 50 T[39] R[29] 50 50 50 </args>
<args> T[30] R[49] 40 T[49] R[30] 40 40 40 </args>
<args> T[31] R[36] 50 T[36] R[31] 50 50 50 </args>
<args> T[33] R[34] 40 T[34] R[33] 40 40 40 </args>
<args> T[34] R[46] 20 T[46] R[34] 20 20 20 </args>
<args> T[35] R[40] 20 T[40] R[35] 20 20 20 </args>
<args> T[36] R[45] 40 T[45] R[36] 40 40 40 </args>
<args> T[36] R[49] 40 T[49] R[36] 40 40 40 </args>
<args> T[37] R[45] 40 T[45] R[37] 40 40 40 </args>
<args> T[38] R[43] 30 T[43] R[38] 30 30 30 </args>
<args> T[40] R[48] 30 T[48] R[40] 30 30 30 </args>
<args> T[41] R[46] 50 T[46] R[41] 50 50 50 </args>
<args> T[42] R[44] 30 T[44] R[42] 30 30 30 </args>
</group>
<nValues>
<list> T[13] R[13] T[22] R[22] T[27] R[27] T[38] R[38] T[42] R[42] T[43] R[43] </list>
<condition> (le,11) </condition>
</nValues>
<nValues>
<list> T[7] R[7] T[21] R[21] T[45] R[45] </list>
<condition> (le,4) </condition>
</nValues>
<nValues>
<list> T[0] R[0] T[3] R[3] T[9] R[9] T[18] R[18] T[20] R[20] T[24] R[24] T[30] R[30] T[36] R[36] T[47] R[47] T[49] R[49] </list>
<condition> (le,19) </condition>
</nValues>
<nValues>
<list> T[5] R[5] T[8] R[8] T[10] R[10] T[16] R[16] T[17] R[17] T[19] R[19] T[29] R[29] T[37] R[37] T[39] R[39] T[40] R[40] </list>
<condition> (le,19) </condition>
</nValues>
<nValues>
<list> T[1] R[1] T[6] R[6] T[23] R[23] T[31] R[31] </list>
<condition> (le,8) </condition>
</nValues>
<nValues>
<list> T[11] R[11] T[12] R[12] T[25] R[25] T[26] R[26] T[28] R[28] T[33] R[33] T[34] R[34] T[41] R[41] T[44] R[44] T[46] R[46] </list>
<condition> (le,18) </condition>
</nValues>
<nValues>
<list> T[2] R[2] T[4] R[4] T[14] R[14] T[15] R[15] T[32] R[32] T[35] R[35] T[48] R[48] </list>
<condition> (le,14) </condition>
</nValues>
<intension> and(eq(T[0],R[38]),eq(T[38],R[0])) </intension>
<intension> and(eq(T[2],R[35]),eq(T[35],R[2])) </intension>
<intension> and(eq(T[2],R[15]),eq(T[15],R[2])) </intension>
<intension> and(eq(T[5],R[10]),eq(T[10],R[5])) </intension>
<intension> and(eq(T[5],R[37]),eq(T[37],R[5])) </intension>
<intension> and(eq(T[12],R[46]),eq(T[46],R[12])) </intension>
<intension> and(eq(T[17],R[40]),eq(T[40],R[17])) </intension>
<intension> and(eq(T[20],R[24]),eq(T[24],R[20])) </intension>
<intension> and(eq(T[24],R[36]),eq(T[36],R[24])) </intension>
<intension> and(eq(T[25],R[27]),eq(T[27],R[25])) </intension>
<intension> and(eq(T[32],R[36]),eq(T[36],R[32])) </intension>
<nValues>
<list> T[] R[] </list>
<condition> (eq,nFrequencies) </condition>
</nValues>
</constraints>
<objectives>
<minimize type="minimum"> nFrequencies </minimize>
</objectives>
</instance>
